DIMENSION: 11
NODE_COORD_SECTION
1 1743.2432432432 880.6083650190
2 -230.7048984468 -302.8257456829
3 231.9320937753 -682.2784810127
4 604.7619047619 481.4111261872
5 -166.8759811617 2439.8773006135
6 -1008.0118694362 75.2957550452
7 201.1441647597 -242.5855513308
8 261.3778705637 275.7467144564
9 810.9839816934 145.4749439043
10 417.8228388474 113.7280416396
11 2026.2773722628 -172.2532588454
